solution status: optimal solution found
objective value:                     178592.433859819
d11(0,0)                                            1 	(obj:0)
d11(1,1)                                            1 	(obj:0)
d11(1,2)                                            1 	(obj:0)
d11(2,3)                                            1 	(obj:0)
d11(2,5)                                            1 	(obj:0)
d11(3,11)                                           1 	(obj:0)
d11(3,13)                                           1 	(obj:0)
d11(4,23)                                           1 	(obj:0)
d12(3,8)                                            1 	(obj:0)
d12(3,10)                                           1 	(obj:0)
d12(3,12)                                           1 	(obj:0)
d12(3,14)                                           1 	(obj:0)
d12(4,16)                                           1 	(obj:0)
d12(4,18)                                           1 	(obj:0)
d12(4,20)                                           1 	(obj:0)
d12(4,22)                                           1 	(obj:0)
d12(4,24)                                           1 	(obj:0)
d12(4,26)                                           1 	(obj:0)
d12(4,28)                                           1 	(obj:0)
d12(4,30)                                           1 	(obj:0)
d12(5,32)                                           1 	(obj:0)
d12(5,34)                                           1 	(obj:0)
d12(5,36)                                           1 	(obj:0)
d12(5,38)                                           1 	(obj:0)
d12(5,40)                                           1 	(obj:0)
d12(5,42)                                           1 	(obj:0)
d12(5,44)                                           1 	(obj:0)
d12(5,46)                                           1 	(obj:0)
d12(5,48)                                           1 	(obj:0)
d12(5,50)                                           1 	(obj:0)
d12(5,52)                                           1 	(obj:0)
d12(5,54)                                           1 	(obj:0)
d12(5,56)                                           1 	(obj:0)
d12(5,58)                                           1 	(obj:0)
d12(5,60)                                           1 	(obj:0)
d12(5,62)                                           1 	(obj:0)
d21(2,3)                                            1 	(obj:0)
d21(3,7)                                            1 	(obj:0)
d21(3,8)                                            1 	(obj:0)
d21(3,9)                                            1 	(obj:0)
d21(3,11)                                           1 	(obj:0)
d21(4,15)                                           1 	(obj:0)
d21(4,16)                                           1 	(obj:0)
d21(4,17)                                           1 	(obj:0)
d21(4,18)                                           1 	(obj:0)
d21(4,19)                                           1 	(obj:0)
d21(4,23)                                           1 	(obj:0)
d21(5,31)                                           1 	(obj:0)
d21(5,32)                                           1 	(obj:0)
d21(5,33)                                           1 	(obj:0)
d21(5,34)                                           1 	(obj:0)
d21(5,35)                                           1 	(obj:0)
d21(5,36)                                           1 	(obj:0)
d21(5,37)                                           1 	(obj:0)
d21(5,39)                                           1 	(obj:0)
d21(5,40)                                           1 	(obj:0)
d21(5,41)                                           1 	(obj:0)
d21(5,43)                                           1 	(obj:0)
d21(5,47)                                           1 	(obj:0)
d21(5,48)                                           1 	(obj:0)
d21(5,49)                                           1 	(obj:0)
d21(5,51)                                           1 	(obj:0)
y2(5,40)                             1385.48851144895 	(obj:0)
y2(5,42)                             1385.48851144895 	(obj:0)
y2(5,44)                             1385.48851144895 	(obj:0)
y2(5,46)                             1385.48851144895 	(obj:0)
y2(5,48)                             1385.48851144895 	(obj:0)
y2(5,50)                             1385.48851144895 	(obj:0)
y2(5,52)                             1385.48851144895 	(obj:0)
y2(5,54)                             1385.48851144895 	(obj:0)
y2(5,56)                             1385.48851144895 	(obj:0)
y2(5,58)                             1385.48851144895 	(obj:0)
y2(5,60)                             1385.48851144895 	(obj:0)
y2(5,62)                             1385.48851144895 	(obj:0)
STE(1,1)                             4011.75010078848 	(obj:0)
STE(0,0)                                         7875 	(obj:0)
STE(1,2)                              5669.9999996773 	(obj:0)
STE(2,3)                             1723.50020189959 	(obj:0)
STE(2,4)                             3381.75010078848 	(obj:0)
STE(2,5)                              3381.7501007884 	(obj:0)
STE(2,6)                              5039.9999996773 	(obj:0)
STE(3,7)                             1093.50020189959 	(obj:0)
STE(3,8)                             2409.71428777609 	(obj:0)
STE(3,9)                             2751.75010078848 	(obj:0)
STE(3,10)                            4067.96418666499 	(obj:0)
STE(3,11)                            2751.75010078844 	(obj:0)
STE(3,12)                            4067.96418666491 	(obj:0)
STE(3,13)                                        4410 	(obj:0)
STE(3,14)                             5726.2140855538 	(obj:0)
STE(4,15)                            463.500201899585 	(obj:0)
STE(4,16)                            1779.71428777609 	(obj:0)
STE(4,17)                            1779.71428777609 	(obj:0)
STE(4,18)                             3095.9283736526 	(obj:0)
STE(4,19)                            2121.75010078848 	(obj:0)
STE(4,20)                            3437.96418666499 	(obj:0)
STE(4,21)                            3437.96418666499 	(obj:0)
STE(4,22)                            4754.17827254149 	(obj:0)
STE(4,23)                            2121.75010078849 	(obj:0)
STE(4,24)                            3437.96418666495 	(obj:0)
STE(4,25)                            3437.96418666491 	(obj:0)
STE(4,26)                            4754.17827254141 	(obj:0)
STE(4,27)                                        3780 	(obj:0)
STE(4,28)                            5096.21408587651 	(obj:0)
STE(4,29)                             5096.2140855538 	(obj:0)
STE(4,30)                            6412.42817143031 	(obj:0)
STE(5,31)                           -166.499798100415 	(obj:0)
STE(5,32)                            1149.71428777609 	(obj:0)
STE(5,33)                            1149.71428777609 	(obj:0)
STE(5,34)                             2465.9283736526 	(obj:0)
STE(5,35)                            1149.71428777609 	(obj:0)
STE(5,36)                             2465.9283736526 	(obj:0)
STE(5,37)                             2465.9283736526 	(obj:0)
STE(5,38)                             3782.1424595291 	(obj:0)
STE(5,39)                            1491.75010078848 	(obj:0)
STE(5,40)                            2807.96418666499 	(obj:0)
STE(5,41)                            2807.96418666499 	(obj:0)
STE(5,42)                            4124.17827254149 	(obj:0)
STE(5,43)                            2807.96418666499 	(obj:0)
STE(5,44)                            4124.17827254149 	(obj:0)
STE(5,45)                            4124.17827254149 	(obj:0)
STE(5,46)                              5440.392358418 	(obj:0)
STE(5,47)                            1491.75010078849 	(obj:0)
STE(5,48)                            2807.96418666499 	(obj:0)
STE(5,49)                            2807.96418666495 	(obj:0)
STE(5,50)                            4124.17827254146 	(obj:0)
STE(5,51)                            2807.96418666491 	(obj:0)
STE(5,52)                            4124.17827254141 	(obj:0)
STE(5,53)                            4124.17827254141 	(obj:0)
STE(5,54)                            5440.39235841792 	(obj:0)
STE(5,55)                                        3150 	(obj:0)
STE(5,56)                            4466.21408587651 	(obj:0)
STE(5,57)                            4466.21408587651 	(obj:0)
STE(5,58)                            5782.42817175301 	(obj:0)
STE(5,59)                             4466.2140855538 	(obj:0)
STE(5,60)                            5782.42817143031 	(obj:0)
STE(5,61)                            5782.42817143031 	(obj:0)
STE(5,62)                            7098.64225730681 	(obj:0)
AVE(1)                                   3216.9117036 	(obj:0)
AVE(2)                                   3366.1541945 	(obj:0)
WB(3)                                    3515.3966854 	(obj:0)
AVE(3)                                   3515.3966854 	(obj:0)
WB(4)                                3515.39406545826 	(obj:0)
AVE(4)                               3515.39406545826 	(obj:0)
WB(5)                                3167.15385943327 	(obj:0)
AVE(5)                               3167.15385943327 	(obj:0)
WG(1)                                    3216.9117036 	(obj:10)
WG(2)                                    3366.1541945 	(obj:10)
BG(1)                                 2425.8093671045 	(obj:10)
BG(2)                                830.138304479591 	(obj:10)
BG(3)                                2673.40993877551 	(obj:10)
BG(4)                                2673.40993877551 	(obj:10)
BG(5)                                2673.40993877551 	(obj:10)
y1(1,1)                              2909.92490929037 	(obj:0)
y1(1,2)                              1417.50000029043 	(obj:0)
y1(2,3)                              1492.42490900001 	(obj:0)
y1(2,5)                              1492.42490900001 	(obj:0)
y1(3,13)                         -2.90433526970446e-007 	(obj:0)
y2(3,8)                              1385.48851144895 	(obj:0)
y2(3,10)                             1385.48851144895 	(obj:0)
y2(3,12)                             1385.48851144895 	(obj:0)
y2(3,14)                             1385.48851144895 	(obj:0)
y2(4,16)                             1385.48851144895 	(obj:0)
y2(4,18)                             1385.48851144895 	(obj:0)
y2(4,20)                             1385.48851144895 	(obj:0)
y2(4,22)                             1385.48851144895 	(obj:0)
y2(4,24)                             1385.48851144895 	(obj:0)
y2(4,26)                             1385.48851144895 	(obj:0)
y2(4,28)                             1385.48851144895 	(obj:0)
y2(4,30)                             1385.48851144895 	(obj:0)
y2(5,32)                             1385.48851144895 	(obj:0)
y2(5,34)                             1385.48851144895 	(obj:0)
y2(5,36)                             1385.48851144895 	(obj:0)
y2(5,38)                             1385.48851144895 	(obj:0)
